[WorldDrop]	Terrain_World	DungeonID	Terrain_Mob	ItemKind	ItemOpt	DropRate	MinLv	MaxLv	Group	MaxDropCnt	OptPoolIdx	DurationIdx	DropSvrCh	EventDropOnly
0	32	0	648	1446	0	.133611111108335	1	200	0	0	0	0	0	0
1	32	0	648	1449	0	.133611111108335	1	200	0	0	0	0	0	0
2	32	0	648	1452	0	.133611111108335	1	200	0	0	0	0	0	0
3	32	0	648	1455	0	.133611111108335	1	200	0	0	0	0	0	0
4	32	0	648	1458	0	.133611111108335	1	200	0	0	0	0	0	0
5	32	0	648	1461	0	.133611111108335	1	200	0	0	0	0	0	0
6	32	0	649	1448	0	.133611111108335	1	200	0	0	0	0	0	0
7	32	0	649	1451	0	.133611111108335	1	200	0	0	0	0	0	0
8	32	0	649	1454	0	.133611111108335	1	200	0	0	0	0	0	0
9	32	0	649	1457	0	.133611111108335	1	200	0	0	0	0	0	0
10	32	0	649	1460	0	.133611111108335	1	200	0	0	0	0	0	0
11	32	0	649	1463	0	.133611111108335	1	200	0	0	0	0	0	0
12	32	0	1177	1448	0	.133611111108335	1	200	0	0	0	0	0	0
13	32	0	1177	1451	0	.133611111108335	1	200	0	0	0	0	0	0
14	32	0	1177	1454	0	.133611111108335	1	200	0	0	0	0	0	0
15	32	0	1177	1457	0	.133611111108335	1	200	0	0	0	0	0	0
16	32	0	1177	1460	0	.133611111108335	1	200	0	0	0	0	0	0
17	32	0	1177	1463	0	.133611111108335	1	200	0	0	0	0	0	0
18	6	0	0	1538	1346	.02	1	200	0	0	0	0	0	0
19	9	0	0	1538	1346	.02	1	200	0	0	0	0	0	0
20	10	0	0	1538	1346	.04	1	200	0	0	0	0	0	0
21	33	0	648	1446	0	.133611111108335	1	200	0	0	0	0	0	0
22	33	0	648	1449	0	.133611111108335	1	200	0	0	0	0	0	0
23	33	0	648	1452	0	.133611111108335	1	200	0	0	0	0	0	0
24	33	0	648	1455	0	.133611111108335	1	200	0	0	0	0	0	0
25	33	0	648	1458	0	.133611111108335	1	200	0	0	0	0	0	0
26	33	0	648	1461	0	.133611111108335	1	200	0	0	0	0	0	0
27	33	0	649	1447	0	.133611111108335	1	200	0	0	0	0	0	0
28	33	0	649	1450	0	.133611111108335	1	200	0	0	0	0	0	0
29	33	0	649	1453	0	.133611111108335	1	200	0	0	0	0	0	0
30	33	0	649	1456	0	.133611111108335	1	200	0	0	0	0	0	0
31	33	0	649	1459	0	.133611111108335	1	200	0	0	0	0	0	0
32	33	0	649	1462	0	.133611111108335	1	200	0	0	0	0	0	0
33	33	0	1177	1447	0	.133611111108335	1	200	0	0	0	0	0	0
34	33	0	1177	1450	0	.133611111108335	1	200	0	0	0	0	0	0
35	33	0	1177	1453	0	.133611111108335	1	200	0	0	0	0	0	0
36	33	0	1177	1456	0	.133611111108335	1	200	0	0	0	0	0	0
37	33	0	1177	1459	0	.133611111108335	1	200	0	0	0	0	0	0
38	33	0	1177	1462	0	.133611111108335	1	200	0	0	0	0	0	0
39	6	0	0	1660	1347	.02	1	200	0	0	0	0	0	0
40	9	0	0	1660	1347	.02	1	200	0	0	0	0	0	0
41	10	0	0	1660	1347	.04	1	200	0	0	0	0	0	0
42	13	218	1177	1692	1	1	1	200	0	0	0	0	0	0
43	13	218	1177	526517	1367	2	1	200	0	0	0	0	0	0
44	13	218	0	1684	1	.09	1	200	0	0	0	0	0	1
45	13	218	0	1701	1	.27	1	200	0	0	0	0	0	1
46	24	0	1177	1693	1	1	1	200	0	0	0	0	0	0
47	24	0	0	1691	1	.09	1	200	0	0	0	0	0	1
48	24	0	0	1687	1	.27	1	200	0	0	0	0	0	1
49	13	253	1177	1694	1	1	1	200	0	0	0	0	0	0
50	13	253	0	1689	1	.09	1	200	0	0	0	0	0	1
51	13	253	0	1686	1	.27	1	200	0	0	0	0	0	1
52	23	0	1177	1700	1	1	1	200	0	0	0	0	0	0
53	23	0	0	1683	1	.09	1	200	0	0	0	0	0	1
54	23	0	0	1685	1	.27	1	200	0	0	0	0	0	1
55	32	0	1177	1704	1	.5	1	200	0	0	0	0	0	0
56	32	0	1177	1705	1	.5	1	200	0	0	0	0	0	0
57	32	0	0	1696	1	.09	1	200	0	0	0	0	0	1
58	32	0	0	1681	1	.27	1	200	0	0	0	0	0	1
59	33	0	1177	1702	1	1	1	200	0	0	0	0	0	0
60	33	0	0	1690	1	.09	1	200	0	0	0	0	0	1
61	33	0	0	1688	1	.27	1	200	0	0	0	0	0	1
62	34	0	1177	1697	1	.5	1	200	0	0	0	0	0	0
63	34	0	1177	1698	1	.5	1	200	0	0	0	0	0	0
64	34	0	0	1682	1	.09	1	200	0	0	0	0	0	1
65	34	0	0	1703	1	.27	1	200	0	0	0	0	0	1
66	6	0	0	1680	1	.0013	1	200	0	0	0	0	0	1
67	6	0	0	1696	1	.013	1	200	0	0	0	0	0	1
68	6	0	0	1688	1	.13	1	200	0	0	0	0	0	1
69	9	0	0	1699	1	.0013	1	200	0	0	0	0	0	1
70	9	0	0	1682	1	.013	1	200	0	0	0	0	0	1
71	9	0	0	1703	1	.13	1	200	0	0	0	0	0	1
72	10	0	0	1695	1	.0013	1	200	0	0	0	0	0	1
73	10	0	0	1681	1	.013	1	200	0	0	0	0	0	1
74	10	0	0	1686	1	.13	1	200	0	0	0	0	0	1
75	35	0	1177	1657	0	.001	1	200	0	0	0	0	0	0
76	35	0	1177	1658	0	.001	1	200	0	0	0	0	0	0
77	35	0	1177	1659	0	.001	1	200	0	0	0	0	0	0
78	35	0	1177	1	0	10	1	200	0	0	0	0	0	0
79	35	0	1177	1214	0	19	1	200	0	0	0	0	0	0
80	35	0	1177	2	0	10	1	200	0	0	0	0	0	0
81	35	0	1177	1215	0	19	1	200	0	0	0	0	0	0
82	35	0	1177	1697	1	.5	1	200	0	0	0	0	0	0
83	35	0	1177	1698	1	.5	1	200	0	0	0	0	0	0
84	35	0	0	1687	1	.09	1	200	0	0	0	0	0	1
85	35	0	0	1684	1	.27	1	200	0	0	0	0	0	1
86	6	0	0	1733	1356	.02	1	200	0	0	0	0	0	0
87	9	0	0	1733	1356	.02	1	200	0	0	0	0	0	0
88	10	0	0	1733	1356	.04	1	200	0	0	0	0	0	0
89	6	0	0	1787	1357	.02	1	200	0	0	0	0	0	0
90	9	0	0	1787	1357	.02	1	200	0	0	0	0	0	0
91	10	0	0	1787	1357	.04	1	200	0	0	0	0	0	0
92	34	0	0	1787	1357	.05	1	200	0	0	0	0	0	1
93	39	302	0	526441	4481	1	1	200	0	0	0	0	0	1
94	39	302	0	526442	385	1	1	200	0	0	0	0	0	1
95	39	302	0	526443	385	1	1	200	0	0	0	0	0	1
96	39	302	0	526444	385	1	1	200	0	0	0	0	0	1
97	39	302	0	526439	0	1	1	200	0	0	0	26	0	1
98	39	302	0	526440	0	1	1	200	0	0	0	26	0	1
99	40	303	0	524308	0	1	1	7	1	0	20	31	0	0
100	40	303	0	524323	0	1	1	7	1	0	20	31	0	0
101	40	303	0	524338	0	1	1	7	1	0	20	31	0	0
102	40	303	0	524353	0	1	1	7	1	0	20	31	0	0
103	40	303	0	524368	0	.5	1	7	1	0	20	31	0	0
104	40	303	0	524383	0	.5	1	7	1	0	20	31	0	0
105	40	303	0	524398	0	1	1	7	1	0	20	31	0	0
106	40	303	0	524413	0	1	1	7	1	0	20	31	0	0
107	40	303	0	524428	0	1	1	7	1	0	20	31	0	0
108	40	303	0	524443	0	1	1	7	1	0	20	31	0	0
109	40	303	0	524458	0	1	1	7	1	0	20	31	0	0
110	40	303	0	524473	0	1	1	7	1	0	20	31	0	0
111	40	303	0	524488	0	1	1	7	1	0	20	31	0	0
112	40	303	0	524503	0	1	1	7	1	0	20	31	0	0
113	40	303	0	524518	0	1	1	7	1	0	20	31	0	0
114	40	303	0	524533	0	1	1	7	1	0	20	31	0	0
115	40	303	0	524548	0	1	1	7	1	0	20	31	0	0
116	40	303	0	524563	0	1	1	7	1	0	20	31	0	0
117	40	303	0	526445	5761	1	1	200	0	0	0	0	0	1
118	40	303	0	526446	513	1	1	200	0	0	0	0	0	1
119	40	303	0	526447	513	1	1	200	0	0	0	0	0	1
120	40	303	0	526448	513	1	1	200	0	0	0	0	0	1
121	40	303	0	526439	0	1	1	200	0	0	0	26	0	1
122	40	303	0	526440	0	1	1	200	0	0	0	26	0	1
123	41	304	0	524309	0	1	1	7	1	0	20	31	0	0
124	41	304	0	524324	0	1	1	7	1	0	20	31	0	0
125	41	304	0	524339	0	1	1	7	1	0	20	31	0	0
126	41	304	0	524354	0	1	1	7	1	0	20	31	0	0
127	41	304	0	524369	0	.5	1	7	1	0	20	31	0	0
128	41	304	0	524384	0	.5	1	7	1	0	20	31	0	0
129	41	304	0	524399	0	1	1	7	1	0	20	31	0	0
130	41	304	0	524414	0	1	1	7	1	0	20	31	0	0
131	41	304	0	524429	0	1	1	7	1	0	20	31	0	0
132	41	304	0	524444	0	1	1	7	1	0	20	31	0	0
133	41	304	0	524459	0	1	1	7	1	0	20	31	0	0
134	41	304	0	524474	0	1	1	7	1	0	20	31	0	0
135	41	304	0	524489	0	1	1	7	1	0	20	31	0	0
136	41	304	0	524504	0	1	1	7	1	0	20	31	0	0
137	41	304	0	524519	0	1	1	7	1	0	20	31	0	0
138	41	304	0	524534	0	1	1	7	1	0	20	31	0	0
139	41	304	0	524549	0	1	1	7	1	0	20	31	0	0
140	41	304	0	524564	0	1	1	7	1	0	20	31	0	0
141	41	304	0	526449	7681	1	1	200	0	0	0	0	0	1
142	41	304	0	526450	769	1	1	200	0	0	0	0	0	1
143	41	304	0	526451	769	1	1	200	0	0	0	0	0	1
144	41	304	0	526452	769	1	1	200	0	0	0	0	0	1
145	41	304	0	526439	0	1	1	200	0	0	0	26	0	1
146	41	304	0	526440	0	1	1	200	0	0	0	26	0	1
147	1	0	0	2148	1363	.02	1	200	0	0	0	0	0	0
148	2	0	0	2148	1363	.02	1	200	0	0	0	0	0	0
149	3	0	0	2148	1363	.02	1	200	0	0	0	0	0	0
150	1	0	0	2149	1364	.01	1	200	0	0	0	0	0	0
151	2	0	0	2149	1364	.01	1	200	0	0	0	0	0	0
152	3	0	0	2149	1364	.01	1	200	0	0	0	0	0	0
153	4	0	0	2149	1364	.02	1	200	0	0	0	0	0	0
154	4	0	0	2150	1365	.01	1	200	0	0	0	0	0	0
155	5	0	0	2150	1365	.04	1	200	0	0	0	0	0	0
156	6	0	0	2181	1366	.02	1	200	0	0	0	0	0	0
157	9	0	0	2181	1366	.02	1	200	0	0	0	0	0	0
158	10	0	0	2181	1366	.04	1	200	0	0	0	0	0	0
159	39	302	1247	2204	0	1	1	200	0	0	0	0	0	0
160	39	302	1247	2205	0	1	1	200	0	0	0	0	0	0
161	40	303	649	2206	0	2	1	200	0	0	0	0	0	0
162	41	304	1177	2207	0	2	1	200	0	0	0	0	0	0
163	26	0	128	2208	0	1	1	200	0	0	0	0	0	0
164	14	0	649	2209	0	1	1	200	0	0	0	0	0	0
165	13	218	1177	2210	0	1	1	200	0	0	0	0	0	0
166	24	0	1177	2211	0	1	1	200	0	0	0	0	0	0
167	13	253	1177	2212	0	1	1	200	0	0	0	0	0	0
168	23	0	1177	2213	0	1	1	200	0	0	0	0	0	0
169	14	0	649	2214	0	1	1	200	0	0	0	0	0	0
170	13	218	1177	2215	0	1	1	200	0	0	0	0	0	0
171	24	0	1177	2216	0	1	1	200	0	0	0	0	0	0
172	13	253	1177	2217	0	1	1	200	0	0	0	0	0	0
173	23	0	1177	2218	0	1	1	200	0	0	0	0	0	0
174	45	0	1177	2219	0	1	1	200	0	0	0	0	0	0
175	33	0	1177	2220	0	1	1	200	0	0	0	0	0	0
176	34	0	1177	2221	0	1	1	200	0	0	0	0	0	0
177	35	0	1177	2222	0	1	1	200	0	0	0	0	0	0
178	32	0	1177	2223	0	1	1	200	0	0	0	0	0	0
179	45	0	1177	2224	0	1	1	200	0	0	0	0	0	0
180	33	0	1177	2225	0	1	1	200	0	0	0	0	0	0
181	34	0	1177	2226	0	1	1	200	0	0	0	0	0	0
182	35	0	1177	2227	0	1	1	200	0	0	0	0	0	0
183	32	0	1177	2228	0	1	1	200	0	0	0	0	0	0
184	45	0	648	1446	0	.1	1	200	0	0	0	0	0	0
185	45	0	648	1449	0	.1	1	200	0	0	0	0	0	0
186	45	0	648	1452	0	.1	1	200	0	0	0	0	0	0
187	45	0	648	1455	0	.1	1	200	0	0	0	0	0	0
188	45	0	648	1458	0	.1	1	200	0	0	0	0	0	0
189	45	0	648	1461	0	.1	1	200	0	0	0	0	0	0
190	45	0	1412	1	0	12	1	200	0	0	0	0	0	0
191	45	0	1412	1215	0	35	1	200	0	0	0	0	0	0
192	45	0	1413	1	0	12	1	200	0	0	0	0	0	0
193	45	0	1413	1215	0	35	1	200	0	0	0	0	0	0
194	45	0	1414	1	0	12	1	200	0	0	0	0	0	0
195	45	0	1414	1215	0	35	1	200	0	0	0	0	0	0
196	6	0	0	2202	1368	.02	1	200	0	0	0	0	0	0
197	9	0	0	2202	1368	.02	1	200	0	0	0	0	0	0
198	10	0	0	2202	1368	.04	1	200	0	0	0	0	0	0
199	25	0	748	1320	0	.69672131147541	1	200	0	0	0	0	0	0
200	25	0	748	1321	0	.69672131147541	1	200	0	0	0	0	0	0
201	25	0	748	1322	0	.69672131147541	1	200	0	0	0	0	0	0
202	25	0	748	1323	0	.69672131147541	1	200	0	0	0	0	0	0
203	25	0	748	1324	0	.69672131147541	1	200	0	0	0	0	0	0
204	25	0	748	1325	0	.69672131147541	1	200	0	0	0	0	0	0
205	25	0	748	1326	0	.69672131147541	1	200	0	0	0	0	0	0
206	25	0	748	1327	0	.69672131147541	1	200	0	0	0	0	0	0
207	25	0	748	1328	0	.69672131147541	1	200	0	0	0	0	0	0
208	25	0	748	1329	0	.69672131147541	1	200	0	0	0	0	0	0
209	25	0	748	1330	0	.69672131147541	1	200	0	0	0	0	0	0
210	25	0	748	1331	0	.69672131147541	1	200	0	0	0	0	0	0
211	25	0	748	1332	0	.69672131147541	1	200	0	0	0	0	0	0
212	25	0	748	1333	0	.69672131147541	1	200	0	0	0	0	0	0
213	25	0	748	1334	0	.69672131147541	1	200	0	0	0	0	0	0
214	25	0	748	1335	0	.69672131147541	1	200	0	0	0	0	0	0
215	25	0	748	1336	0	.69672131147541	1	200	0	0	0	0	0	0
216	25	0	748	1337	0	.69672131147541	1	200	0	0	0	0	0	0
217	25	0	748	156	268435456	4.18032786885246	1	200	0	0	0	0	0	0
218	25	0	748	171	268435456	4.18032786885246	1	200	0	0	0	0	0	0
219	25	0	748	186	268435456	4.18032786885246	1	200	0	0	0	0	0	0
220	25	0	748	201	268435456	4.18032786885246	1	200	0	0	0	0	0	0
221	25	0	748	216	268435456	4.18032786885246	1	200	0	0	0	0	0	0
222	25	0	748	231	268435456	4.18032786885246	1	200	0	0	0	0	0	0
223	25	0	748	246	268435456	4.18032786885246	1	200	0	0	0	0	0	0
224	25	0	748	261	268435456	4.18032786885246	1	200	0	0	0	0	0	0
225	25	0	748	276	268435456	4.18032786885246	1	200	0	0	0	0	0	0
226	25	0	748	21	0	6.9672131147541	1	200	0	0	0	0	0	0
227	25	0	748	36	0	6.9672131147541	1	200	0	0	0	0	0	0
228	25	0	748	51	0	6.9672131147541	1	200	0	0	0	0	0	0
229	25	0	748	66	0	6.9672131147541	1	200	0	0	0	0	0	0
230	25	0	748	81	0	3.48360655737705	1	200	0	0	0	0	0	0
231	25	0	748	96	0	3.48360655737705	1	200	0	0	0	0	0	0
232	25	0	748	428	0	5	1	200	0	0	0	0	0	0
233	25	0	748	430	0	5	1	200	0	0	0	0	0	0
234	25	0	748	414	0	5	1	200	0	0	0	0	0	0
235	25	0	746	1320	0	.69672131147541	1	200	0	0	0	0	0	0
236	25	0	746	1321	0	.69672131147541	1	200	0	0	0	0	0	0
237	25	0	746	1322	0	.69672131147541	1	200	0	0	0	0	0	0
238	25	0	746	1323	0	.69672131147541	1	200	0	0	0	0	0	0
239	25	0	746	1324	0	.69672131147541	1	200	0	0	0	0	0	0
240	25	0	746	1325	0	.69672131147541	1	200	0	0	0	0	0	0
241	25	0	746	1326	0	.69672131147541	1	200	0	0	0	0	0	0
242	25	0	746	1327	0	.69672131147541	1	200	0	0	0	0	0	0
243	25	0	746	1328	0	.69672131147541	1	200	0	0	0	0	0	0
244	25	0	746	1329	0	.69672131147541	1	200	0	0	0	0	0	0
245	25	0	746	1330	0	.69672131147541	1	200	0	0	0	0	0	0
246	25	0	746	1331	0	.69672131147541	1	200	0	0	0	0	0	0
247	25	0	746	1332	0	.69672131147541	1	200	0	0	0	0	0	0
248	25	0	746	1333	0	.69672131147541	1	200	0	0	0	0	0	0
249	25	0	746	1334	0	.69672131147541	1	200	0	0	0	0	0	0
250	25	0	746	1335	0	.69672131147541	1	200	0	0	0	0	0	0
251	25	0	746	1336	0	.69672131147541	1	200	0	0	0	0	0	0
252	25	0	746	1337	0	.69672131147541	1	200	0	0	0	0	0	0
253	25	0	746	156	268435456	4.18032786885246	1	200	0	0	0	0	0	0
254	25	0	746	171	268435456	4.18032786885246	1	200	0	0	0	0	0	0
255	25	0	746	186	268435456	4.18032786885246	1	200	0	0	0	0	0	0
256	25	0	746	201	268435456	4.18032786885246	1	200	0	0	0	0	0	0
257	25	0	746	216	268435456	4.18032786885246	1	200	0	0	0	0	0	0
258	25	0	746	231	268435456	4.18032786885246	1	200	0	0	0	0	0	0
259	25	0	746	246	268435456	4.18032786885246	1	200	0	0	0	0	0	0
260	25	0	746	261	268435456	4.18032786885246	1	200	0	0	0	0	0	0
261	25	0	746	276	268435456	4.18032786885246	1	200	0	0	0	0	0	0
262	25	0	746	21	0	6.9672131147541	1	200	0	0	0	0	0	0
263	25	0	746	36	0	6.9672131147541	1	200	0	0	0	0	0	0
264	25	0	746	51	0	6.9672131147541	1	200	0	0	0	0	0	0
265	25	0	746	66	0	6.9672131147541	1	200	0	0	0	0	0	0
266	25	0	746	81	0	3.48360655737705	1	200	0	0	0	0	0	0
267	25	0	746	96	0	3.48360655737705	1	200	0	0	0	0	0	0
268	25	0	746	428	0	5	1	200	0	0	0	0	0	0
269	25	0	746	430	0	5	1	200	0	0	0	0	0	0
270	25	0	746	414	0	5	1	200	0	0	0	0	0	0
271	25	0	741	1320	0	.69672131147541	1	200	0	0	0	0	0	0
272	25	0	741	1321	0	.69672131147541	1	200	0	0	0	0	0	0
273	25	0	741	1322	0	.69672131147541	1	200	0	0	0	0	0	0
274	25	0	741	1323	0	.69672131147541	1	200	0	0	0	0	0	0
275	25	0	741	1324	0	.69672131147541	1	200	0	0	0	0	0	0
276	25	0	741	1325	0	.69672131147541	1	200	0	0	0	0	0	0
277	25	0	741	1326	0	.69672131147541	1	200	0	0	0	0	0	0
278	25	0	741	1327	0	.69672131147541	1	200	0	0	0	0	0	0
279	25	0	741	1328	0	.69672131147541	1	200	0	0	0	0	0	0
280	25	0	741	1329	0	.69672131147541	1	200	0	0	0	0	0	0
281	25	0	741	1330	0	.69672131147541	1	200	0	0	0	0	0	0
282	25	0	741	1331	0	.69672131147541	1	200	0	0	0	0	0	0
283	25	0	741	1332	0	.69672131147541	1	200	0	0	0	0	0	0
284	25	0	741	1333	0	.69672131147541	1	200	0	0	0	0	0	0
285	25	0	741	1334	0	.69672131147541	1	200	0	0	0	0	0	0
286	25	0	741	1335	0	.69672131147541	1	200	0	0	0	0	0	0
287	25	0	741	1336	0	.69672131147541	1	200	0	0	0	0	0	0
288	25	0	741	1337	0	.69672131147541	1	200	0	0	0	0	0	0
289	25	0	741	156	268435456	4.18032786885246	1	200	0	0	0	0	0	0
290	25	0	741	171	268435456	4.18032786885246	1	200	0	0	0	0	0	0
291	25	0	741	186	268435456	4.18032786885246	1	200	0	0	0	0	0	0
292	25	0	741	201	268435456	4.18032786885246	1	200	0	0	0	0	0	0
293	25	0	741	216	268435456	4.18032786885246	1	200	0	0	0	0	0	0
294	25	0	741	231	268435456	4.18032786885246	1	200	0	0	0	0	0	0
295	25	0	741	246	268435456	4.18032786885246	1	200	0	0	0	0	0	0
296	25	0	741	261	268435456	4.18032786885246	1	200	0	0	0	0	0	0
297	25	0	741	276	268435456	4.18032786885246	1	200	0	0	0	0	0	0
298	25	0	741	21	0	6.9672131147541	1	200	0	0	0	0	0	0
299	25	0	741	36	0	6.9672131147541	1	200	0	0	0	0	0	0
300	25	0	741	51	0	6.9672131147541	1	200	0	0	0	0	0	0
301	25	0	741	66	0	6.9672131147541	1	200	0	0	0	0	0	0
302	25	0	741	81	0	3.48360655737705	1	200	0	0	0	0	0	0
303	25	0	741	96	0	3.48360655737705	1	200	0	0	0	0	0	0
304	25	0	741	428	0	5	1	200	0	0	0	0	0	0
305	25	0	741	430	0	5	1	200	0	0	0	0	0	0
306	25	0	741	414	0	5	1	200	0	0	0	0	0	0
307	25	0	752	1320	0	.69672131147541	1	200	0	0	0	0	0	0
308	25	0	752	1321	0	.69672131147541	1	200	0	0	0	0	0	0
309	25	0	752	1322	0	.69672131147541	1	200	0	0	0	0	0	0
310	25	0	752	1323	0	.69672131147541	1	200	0	0	0	0	0	0
311	25	0	752	1324	0	.69672131147541	1	200	0	0	0	0	0	0
312	25	0	752	1325	0	.69672131147541	1	200	0	0	0	0	0	0
313	25	0	752	1326	0	.69672131147541	1	200	0	0	0	0	0	0
314	25	0	752	1327	0	.69672131147541	1	200	0	0	0	0	0	0
315	25	0	752	1328	0	.69672131147541	1	200	0	0	0	0	0	0
316	25	0	752	1329	0	.69672131147541	1	200	0	0	0	0	0	0
317	25	0	752	1330	0	.69672131147541	1	200	0	0	0	0	0	0
318	25	0	752	1331	0	.69672131147541	1	200	0	0	0	0	0	0
319	25	0	752	1332	0	.69672131147541	1	200	0	0	0	0	0	0
320	25	0	752	1333	0	.69672131147541	1	200	0	0	0	0	0	0
321	25	0	752	1334	0	.69672131147541	1	200	0	0	0	0	0	0
322	25	0	752	1335	0	.69672131147541	1	200	0	0	0	0	0	0
323	25	0	752	1336	0	.69672131147541	1	200	0	0	0	0	0	0
324	25	0	752	1337	0	.69672131147541	1	200	0	0	0	0	0	0
325	25	0	752	156	268435456	4.18032786885246	1	200	0	0	0	0	0	0
326	25	0	752	171	268435456	4.18032786885246	1	200	0	0	0	0	0	0
327	25	0	752	186	268435456	4.18032786885246	1	200	0	0	0	0	0	0
328	25	0	752	201	268435456	4.18032786885246	1	200	0	0	0	0	0	0
329	25	0	752	216	268435456	4.18032786885246	1	200	0	0	0	0	0	0
330	25	0	752	231	268435456	4.18032786885246	1	200	0	0	0	0	0	0
331	25	0	752	246	268435456	4.18032786885246	1	200	0	0	0	0	0	0
332	25	0	752	261	268435456	4.18032786885246	1	200	0	0	0	0	0	0
333	25	0	752	276	268435456	4.18032786885246	1	200	0	0	0	0	0	0
334	25	0	752	21	0	6.9672131147541	1	200	0	0	0	0	0	0
335	25	0	752	36	0	6.9672131147541	1	200	0	0	0	0	0	0
336	25	0	752	51	0	6.9672131147541	1	200	0	0	0	0	0	0
337	25	0	752	66	0	6.9672131147541	1	200	0	0	0	0	0	0
338	25	0	752	81	0	3.48360655737705	1	200	0	0	0	0	0	0
339	25	0	752	96	0	3.48360655737705	1	200	0	0	0	0	0	0
340	25	0	752	428	0	5	1	200	0	0	0	0	0	0
341	25	0	752	430	0	5	1	200	0	0	0	0	0	0
342	25	0	752	414	0	5	1	200	0	0	0	0	0	0
